Version identifier: 22.1.0.0 | 2022-03-09 | 1a383f8ce
CPXPARAM_Threads                                 1
CPXPARAM_MIP_Strategy_VariableSelect             3
CPXPARAM_TimeLimit                               599.99728371000003
Found incumbent of value 0.000000 after 0.00 sec. (0.41 ticks)

Root node processing (before b&c):
  Real time             =    0.00 sec. (0.47 ticks)
Sequential b&c:
  Real time             =    0.00 sec. (0.00 ticks)
                          ------------
Total (root+branch&cut) =    0.00 sec. (0.47 ticks)
Version identifier: 22.1.0.0 | 2022-03-09 | 1a383f8ce
CPXPARAM_Threads                                 1
CPXPARAM_MIP_Strategy_VariableSelect             3
CPXPARAM_TimeLimit                               599.97939521900003
Found incumbent of value 0.000000 after 0.00 sec. (0.51 ticks)

Root node processing (before b&c):
  Real time             =    0.00 sec. (0.58 ticks)
Sequential b&c:
  Real time             =    0.00 sec. (0.00 ticks)
                          ------------
Total (root+branch&cut) =    0.00 sec. (0.58 ticks)
Version identifier: 22.1.0.0 | 2022-03-09 | 1a383f8ce
CPXPARAM_Threads                                 1
CPXPARAM_MIP_Strategy_VariableSelect             3
CPXPARAM_TimeLimit                               599.95922191399995
Found incumbent of value 0.000000 after 0.00 sec. (0.56 ticks)

Root node processing (before b&c):
  Real time             =    0.00 sec. (0.63 ticks)
Sequential b&c:
  Real time             =    0.00 sec. (0.00 ticks)
                          ------------
Total (root+branch&cut) =    0.00 sec. (0.63 ticks)
Version identifier: 22.1.0.0 | 2022-03-09 | 1a383f8ce
CPXPARAM_Threads                                 1
CPXPARAM_MIP_Strategy_VariableSelect             3
CPXPARAM_TimeLimit                               599.93748048099997
Found incumbent of value 0.000000 after 0.00 sec. (0.58 ticks)

Root node processing (before b&c):
  Real time             =    0.00 sec. (0.66 ticks)
Sequential b&c:
  Real time             =    0.00 sec. (0.00 ticks)
                          ------------
Total (root+branch&cut) =    0.00 sec. (0.66 ticks)
Version identifier: 22.1.0.0 | 2022-03-09 | 1a383f8ce
CPXPARAM_Threads                                 1
CPXPARAM_MIP_Strategy_VariableSelect             3
CPXPARAM_TimeLimit                               599.91487174700001
Found incumbent of value 0.000000 after 0.00 sec. (0.59 ticks)

Root node processing (before b&c):
  Real time             =    0.00 sec. (0.67 ticks)
Sequential b&c:
  Real time             =    0.00 sec. (0.00 ticks)
                          ------------
Total (root+branch&cut) =    0.00 sec. (0.67 ticks)
Version identifier: 22.1.0.0 | 2022-03-09 | 1a383f8ce
CPXPARAM_Threads                                 1
CPXPARAM_MIP_Strategy_VariableSelect             3
CPXPARAM_TimeLimit                               599.89192150999997
Tried aggregator 1 time.
MIP Presolve eliminated 373 rows and 1071 columns.
Reduced MIP has 2138 rows, 3213 columns, and 26966 nonzeros.
Reduced MIP has 3213 binaries, 0 generals, 0 SOSs, and 0 indicators.
Presolve time = 0.02 sec. (15.15 ticks)
Probing time = 0.00 sec. (2.84 ticks)
Tried aggregator 1 time.
Detecting symmetries...
Reduced MIP has 2138 rows, 3213 columns, and 26966 nonzeros.
Reduced MIP has 3213 binaries, 0 generals, 0 SOSs, and 0 indicators.
Presolve time = 0.02 sec. (16.71 ticks)
Probing time = 0.00 sec. (2.84 ticks)
Clique table members: 1422.
MIP emphasis: balance optimality and feasibility.
MIP search method: dynamic search.
Parallel mode: none, using 1 thread.
Root relaxation solution time = 0.02 sec. (19.36 ticks)

        Nodes                                         Cuts/
   Node  Left     Objective  IInf  Best Integer    Best Bound    ItCnt     Gap

      0     0        0.0000   101                      0.0000      479         
*     0+    0                            0.0000        0.0000             0.00%
      0     0        cutoff              0.0000        0.0000      479    0.00%
Elapsed time = 0.18 sec. (144.11 ticks, tree = 0.01 MB, solutions = 1)

Root node processing (before b&c):
  Real time             =    0.18 sec. (144.24 ticks)
Sequential b&c:
  Real time             =    0.00 sec. (0.00 ticks)
                          ------------
Total (root+branch&cut) =    0.18 sec. (144.24 ticks)
Version identifier: 22.1.0.0 | 2022-03-09 | 1a383f8ce
CPXPARAM_Threads                                 1
CPXPARAM_MIP_Strategy_VariableSelect             3
CPXPARAM_TimeLimit                               599.69103085300003
Tried aggregator 1 time.
MIP Presolve eliminated 375 rows and 1077 columns.
Reduced MIP has 2150 rows, 3231 columns, and 27118 nonzeros.
Reduced MIP has 3231 binaries, 0 generals, 0 SOSs, and 0 indicators.
Presolve time = 0.02 sec. (15.23 ticks)
Probing time = 0.00 sec. (2.84 ticks)
Tried aggregator 1 time.
Detecting symmetries...
Reduced MIP has 2150 rows, 3231 columns, and 27118 nonzeros.
Reduced MIP has 3231 binaries, 0 generals, 0 SOSs, and 0 indicators.
Presolve time = 0.02 sec. (16.80 ticks)
Probing time = 0.00 sec. (2.84 ticks)
Clique table members: 1430.
MIP emphasis: balance optimality and feasibility.
MIP search method: dynamic search.
Parallel mode: none, using 1 thread.
Root relaxation solution time = 0.02 sec. (21.09 ticks)

        Nodes                                         Cuts/
   Node  Left     Objective  IInf  Best Integer    Best Bound    ItCnt     Gap

      0     0        0.0000   102                      0.0000      486         
*     0+    0                            0.0000        0.0000             0.00%
      0     0        cutoff              0.0000        0.0000      486    0.00%
Elapsed time = 0.15 sec. (129.57 ticks, tree = 0.01 MB, solutions = 1)

Root node processing (before b&c):
  Real time             =    0.16 sec. (129.70 ticks)
Sequential b&c:
  Real time             =    0.00 sec. (0.00 ticks)
                          ------------
Total (root+branch&cut) =    0.16 sec. (129.70 ticks)
Version identifier: 22.1.0.0 | 2022-03-09 | 1a383f8ce
CPXPARAM_Threads                                 1
CPXPARAM_MIP_Strategy_VariableSelect             3
CPXPARAM_TimeLimit                               599.51237309700002
Tried aggregator 1 time.
MIP Presolve eliminated 376 rows and 1080 columns.
Reduced MIP has 2156 rows, 3240 columns, and 27194 nonzeros.
Reduced MIP has 3240 binaries, 0 generals, 0 SOSs, and 0 indicators.
Presolve time = 0.02 sec. (15.28 ticks)
Probing time = 0.00 sec. (2.84 ticks)
Tried aggregator 1 time.
Detecting symmetries...
Reduced MIP has 2156 rows, 3240 columns, and 27194 nonzeros.
Reduced MIP has 3240 binaries, 0 generals, 0 SOSs, and 0 indicators.
Presolve time = 0.02 sec. (16.85 ticks)
Probing time = 0.00 sec. (2.84 ticks)
Clique table members: 1434.
MIP emphasis: balance optimality and feasibility.
MIP search method: dynamic search.
Parallel mode: none, using 1 thread.
Root relaxation solution time = 0.02 sec. (21.99 ticks)

        Nodes                                         Cuts/
   Node  Left     Objective  IInf  Best Integer    Best Bound    ItCnt     Gap

      0     0        0.0000    87                      0.0000      468         
*     0+    0                            0.0000        0.0000             0.00%
      0     0        cutoff              0.0000        0.0000      468    0.00%
Elapsed time = 0.19 sec. (161.07 ticks, tree = 0.01 MB, solutions = 1)

Root node processing (before b&c):
  Real time             =    0.19 sec. (161.20 ticks)
Sequential b&c:
  Real time             =    0.00 sec. (0.00 ticks)
                          ------------
Total (root+branch&cut) =    0.19 sec. (161.20 ticks)
Primal:	360
Dual:	360
Status:	Optimal
Time:	0.693776
Sequence:
	9
	5
	9
	9
	5
	9
	9
	9
	9
	5
	9
	9
	9
	9
	5
	9
	5
	9
	9
	5
	9
	5
	9
	5
	9
	5
	9
	9
	5
	9
	9
	5
	9
	9
	9
	5
	9
	4
	9
	9
	9
	9
	5
	9
	9
	9
	9
	9
	9
	9
	5
	9
	4
	9
	9
	9
	9
	9
	9
	9
	9
	1
	9
	9
	9
	9
	9
	4
	5
	9
	9
	4
	5
	9
	9
	9
	5
	9
	9
	9
	9
	9
	9
	9
	9
	4
	5
	9
	9
	9
	5
	9
	9
	9
	9
	9
	9
	9
	9
	5
	9
	5
	0
	5
	4
	0
	4
	1
	0
	5
	4
	10
	4
	0
	9
	4
	5
	0
	4
	9
	0
	5
	4
	0
	5
	4
	0
	1
	4
	5
	9
	4
	0
	4
	1
	0
	11
	4
	5
	9
	5
	9
	5
	4
	1
	4
	1
	9
	5
	0
	4
	9
	5
	9
	5
	0
	3
	9
	4
	1
	9
	0
	5
	9
	4
	0
	9
	5
	0
	5
	9
	0
	1
	4
	0
	5
	4
	1
	4
	0
	4
	11
	9
	5
	0
	9
	1
	0
	5
	9
	5
	4
	0
	5
	4
	0
	5
	9
	5
	0
	4
	5
	0
	1
	9
	0
	4
	3
	4
	0
	4
	5
	0
	4
	5
	0
	9
	1
	0
	4
	4
	9
	5
	9
	5
	0
	5
	9
	4
	0
	5
	9
	9
	5
	9
	4
	4
	0
	4
	9
	4
	0
	1
	4
	0
	5
	4
	1
	4
	0
	5
	4
	0
	5
	9
	5
	4
	9
	0
	5
	9
	4
	9
	5
	9
	4
	9
	5
	4
	0
	4
	9
	0
	4
	5
	0
	5
	9
	5
	0
	11
	4
	9
	5
	0
	9
	1
	9
	4
	0
	5
	4
	9
	5
	0
	1
	9
	4
	5
	0
	1
	9
	5
	4
	9
	0
	5
	9
	9
	5
	0
	5
	4
	1
	0
	4
	5
	9
	4
	0
	9
	5
	4
	1
	0
	5
	9
	5
	4
	0
	5
	4
	0
	11
	4
	9
	0
	5
	9
	2
	5
	4
	3
	0
	5
	4
	0
	5
	9
	0
	5
	9
	1
	0
	5
	4
	0
	5
	9
	0
